1634960
0 23 15310
23 60 5437
60 20 26988
20 2 17216
2 11 17313
11 41 4831
41 31 5759
31 55 1427
55 39 3489
39 4 3130
4 18 15574
18 48 8895
48 22 4353
22 59 7498
59 28 6419
28 24 9940
24 29 1249
29 40 5056
40 5 10602
5 63 32039
63 66 14572
66 37 15200
37 6 28523
6 10 50738
10 65 13370
65 25 57991
25 54 61621
54 33 20835
33 45 36286
45 42 69394
42 30 116978
30 21 39447
21 51 46274
51 32 101509
32 56 88918
56 17 27906
17 9 28652
9 13 62052
13 43 62420
43 27 76431
27 49 10810
49 52 48925
52 36 6554
36 61 30446
61 38 8740
38 50 11004
50 34 8926
34 67 19070
67 7 34471
7 35 11459
35 58 8563
58 14 17397
14 57 6904
57 8 1777
8 16 5356
16 26 1445
26 44 8214
44 64 16726
64 19 13332
19 62 30152
62 15 14689
15 1 21569
1 47 7938
47 3 7248
3 12 15762
12 46 9114
46 53 18520
53 0 18207
